25596
0 0 1 0 1 0 1 0 1 0 1 0 0 1 0 0 1 0 1 0 0 0 0 0 1 1 0 0 1 0 
18 6 2 24 2 6 16 28 18 28 4 28 13 13 28 18 13 10 16 24 18 16 2 24 10 18 24 28 4 2 6 4 4 16 28 6 8 8 24 16 18 8 6 4 8 4 13 16 6 10 24 16 24 16 8 6 25 8 18 25 4 2 18 8 13 25 2 28 6 25 18 6 6 8 10 13 8 10 8 16 10 2 8 25 4 13 4 2 24 25 28 6 25 25 2 13 28 6 2 28 28 16 25 18 4 24 4 24 16 13 4 4 18 6 6 8 28 25 10 8 8 25 28 6 4 16 2 25 4 10 28 24 25 10 13 8 13 13 28 10 25 18 6 25 25 2 24 16 18 25 24 28 10 28 8 28 2 16 13 13 13 24 10 24 10 24 2 4 13 2 13 8 28 10 4 2 24 10 4 10 2 16 2 28 25 8 28 10 24 16 2 16 6 4 25 6 18 2 10 6 
